(set-logic QF_S)
(declare-fun var0 () String)
(assert (RegexIn var0 (RegexConcat (RegexStar (RegexPlus (Str2Reg "000"))) (RegexConcat (RegexStar (RegexPlus (Str2Reg "1"))) (RegexConcat (RegexStar (RegexStar (Str2Reg "22"))) (RegexConcat (RegexUnion (RegexStar (Str2Reg "3")) (RegexStar (Str2Reg "444"))) (RegexConcat (RegexUnion (RegexStar (Str2Reg "555")) (RegexStar (Str2Reg "66"))) (RegexConcat (RegexUnion (RegexUnion (Str2Reg "77") (Str2Reg "888")) (RegexUnion (Str2Reg "999") (Str2Reg "a"))) (RegexConcat (RegexPlus (RegexPlus (Str2Reg "bb"))) (RegexConcat (RegexPlus (RegexUnion (Str2Reg "cc") (Str2Reg "d"))) (RegexConcat (RegexPlus (RegexPlus (Str2Reg "ee"))) (RegexConcat (RegexPlus (RegexUnion (Str2Reg "fff") (Str2Reg "g"))) (RegexConcat (RegexPlus (RegexPlus (Str2Reg "hhh"))) (RegexConcat (RegexStar (RegexUnion (Str2Reg "iii") (Str2Reg "jj"))) (RegexConcat (RegexUnion (RegexStar (Str2Reg "kk")) (RegexStar (Str2Reg "ll"))) (RegexConcat (RegexStar (RegexStar (Str2Reg "mmm"))) (RegexConcat (RegexPlus (RegexUnion (Str2Reg "n") (Str2Reg "o"))) (RegexConcat (RegexPlus (RegexStar (Str2Reg "p"))) (RegexConcat (RegexStar (RegexStar (Str2Reg "qq"))) (RegexConcat (RegexStar (RegexUnion (Str2Reg "rr") (Str2Reg "sss"))) (RegexConcat (RegexStar (RegexStar (Str2Reg "t"))) (RegexConcat (RegexPlus (RegexStar (Str2Reg "uu"))) (RegexConcat (RegexUnion (RegexStar (Str2Reg "vv")) (RegexStar (Str2Reg "w"))) (RegexConcat (RegexPlus (RegexPlus (Str2Reg "x"))) (RegexConcat (RegexStar (RegexUnion (Str2Reg "y") (Str2Reg "zz"))) (RegexConcat (RegexPlus (RegexUnion (Str2Reg "AAA") (Str2Reg "BB"))) (RegexConcat (RegexUnion (RegexPlus (Str2Reg "CCC")) (RegexPlus (Str2Reg "DD"))) (RegexConcat (RegexPlus (RegexPlus (Str2Reg "EE"))) (RegexConcat (RegexPlus (RegexPlus (Str2Reg "FFF"))) (RegexConcat (RegexUnion (RegexPlus (Str2Reg "G")) (RegexPlus (Str2Reg "HH"))) (RegexConcat (RegexUnion (RegexUnion (Str2Reg "III") (Str2Reg "JJJ")) (RegexUnion (Str2Reg "KKK") (Str2Reg "LLL"))) (RegexConcat (RegexUnion (RegexStar (Str2Reg "MM")) (RegexStar (Str2Reg "N"))) (RegexConcat (RegexPlus (RegexUnion (Str2Reg "O") (Str2Reg "P"))) (RegexConcat (RegexPlus (RegexPlus (Str2Reg "Q"))) (RegexConcat (RegexPlus (RegexPlus (Str2Reg "RRR"))) (RegexConcat (RegexUnion (RegexStar (Str2Reg "S")) (RegexStar (Str2Reg "TT"))) (RegexConcat (RegexStar (RegexStar (Str2Reg "UU"))) (RegexConcat (RegexPlus (RegexStar (Str2Reg "VV"))) (RegexConcat (RegexPlus (RegexPlus (Str2Reg "WWW"))) (RegexConcat (RegexStar (RegexUnion (Str2Reg "XXX") (Str2Reg "YYY"))) (RegexConcat (RegexStar (RegexStar (Str2Reg "ZZZ"))) (RegexConcat (RegexUnion (RegexPlus (Str2Reg "!")) (RegexPlus (Str2Reg "\""))) (RegexConcat (RegexUnion (RegexPlus (Str2Reg "###")) (RegexPlus (Str2Reg "$"))) (RegexConcat (RegexPlus (RegexPlus (Str2Reg "%%"))) (RegexConcat (RegexStar (RegexUnion (Str2Reg "&&") (Str2Reg "'''"))) (RegexConcat (RegexUnion (RegexPlus (Str2Reg "((")) (RegexPlus (Str2Reg ")"))) (RegexConcat (RegexStar (RegexUnion (Str2Reg "*") (Str2Reg "++"))) (RegexConcat (RegexUnion (RegexPlus (Str2Reg ",")) (RegexPlus (Str2Reg "-"))) (RegexConcat (RegexPlus (RegexUnion (Str2Reg ".") (Str2Reg "///"))) (RegexConcat (RegexStar (RegexPlus (Str2Reg "::"))) (RegexConcat (RegexUnion (RegexUnion (Str2Reg ";;") (Str2Reg "<<<")) (RegexUnion (Str2Reg "=") (Str2Reg ">>>"))) (RegexConcat (RegexPlus (RegexPlus (Str2Reg "???"))) (RegexConcat (RegexStar (RegexPlus (Str2Reg "@@"))) (RegexConcat (RegexPlus (RegexPlus (Str2Reg "[[["))) (RegexConcat (RegexPlus (RegexUnion (Str2Reg "\\") (Str2Reg "]"))) (RegexConcat (RegexUnion (RegexPlus (Str2Reg "^^")) (RegexPlus (Str2Reg "___"))) (RegexConcat (RegexPlus (RegexStar (Str2Reg "```"))) (RegexConcat (RegexUnion (RegexPlus (Str2Reg "{")) (RegexPlus (Str2Reg "|||"))) (RegexConcat (RegexStar (RegexStar (Str2Reg "}"))) (RegexConcat (RegexStar (RegexUnion (Str2Reg "~") (Str2Reg "00"))) (RegexConcat (RegexUnion (RegexPlus (Str2Reg "1")) (RegexPlus (Str2Reg "2"))) (RegexConcat (RegexUnion (RegexPlus (Str2Reg "333")) (RegexPlus (Str2Reg "4"))) (RegexConcat (RegexStar (RegexUnion (Str2Reg "5") (Str2Reg "666"))) (RegexConcat (RegexStar (RegexStar (Str2Reg "77"))) (RegexConcat (RegexStar (RegexStar (Str2Reg "888"))) (RegexConcat (RegexPlus (RegexUnion (Str2Reg "9") (Str2Reg "aaa"))) (RegexConcat (RegexStar (RegexPlus (Str2Reg "bbb"))) (RegexConcat (RegexPlus (RegexUnion (Str2Reg "c") (Str2Reg "dd"))) (RegexConcat (RegexPlus (RegexPlus (Str2Reg "eee"))) (RegexConcat (RegexPlus (RegexUnion (Str2Reg "fff") (Str2Reg "ggg"))) (RegexConcat (RegexUnion (RegexUnion (Str2Reg "hh") (Str2Reg "iii")) (RegexUnion (Str2Reg "j") (Str2Reg "kkk"))) (RegexConcat (RegexPlus (RegexUnion (Str2Reg "lll") (Str2Reg "mmm"))) (RegexConcat (RegexStar (RegexStar (Str2Reg "nn"))) (RegexConcat (RegexStar (RegexPlus (Str2Reg "o"))) (RegexConcat (RegexStar (RegexStar (Str2Reg "ppp"))) (RegexConcat (RegexPlus (RegexStar (Str2Reg "qq"))) (RegexConcat (RegexPlus (RegexUnion (Str2Reg "rrr") (Str2Reg "s"))) (RegexConcat (RegexPlus (RegexUnion (Str2Reg "ttt") (Str2Reg "u"))) (RegexConcat (RegexPlus (RegexUnion (Str2Reg "vv") (Str2Reg "w"))) (RegexConcat (RegexPlus (RegexUnion (Str2Reg "xx") (Str2Reg "y"))) (RegexConcat (RegexUnion (RegexPlus (Str2Reg "z")) (RegexPlus (Str2Reg "AA"))) (RegexConcat (RegexStar (RegexPlus (Str2Reg "B"))) (RegexConcat (RegexPlus (RegexUnion (Str2Reg "CCC") (Str2Reg "DDD"))) (RegexConcat (RegexPlus (RegexUnion (Str2Reg "EE") (Str2Reg "FFF"))) (RegexConcat (RegexUnion (RegexPlus (Str2Reg "G")) (RegexPlus (Str2Reg "HHH"))) (RegexConcat (RegexStar (RegexUnion (Str2Reg "III") (Str2Reg "JJJ"))) (RegexConcat (RegexPlus (RegexPlus (Str2Reg "KK"))) (RegexConcat (RegexStar (RegexUnion (Str2Reg "LL") (Str2Reg "M"))) (RegexConcat (RegexUnion (RegexStar (Str2Reg "N")) (RegexStar (Str2Reg "OOO"))) (RegexConcat (RegexUnion (RegexUnion (Str2Reg "P") (Str2Reg "QQ")) (RegexUnion (Str2Reg "RR") (Str2Reg "SS"))) (RegexConcat (RegexPlus (RegexUnion (Str2Reg "T") (Str2Reg "UUU"))) (RegexConcat (RegexPlus (RegexPlus (Str2Reg "V"))) (RegexConcat (RegexUnion (RegexPlus (Str2Reg "WWW")) (RegexPlus (Str2Reg "XXX"))) (RegexConcat (RegexStar (RegexPlus (Str2Reg "YY"))) (RegexConcat (RegexStar (RegexStar (Str2Reg "ZZZ"))) (RegexConcat (RegexPlus (RegexStar (Str2Reg "!!!"))) (RegexConcat (RegexPlus (RegexPlus (Str2Reg "\"\""))) (RegexConcat (RegexStar (RegexStar (Str2Reg "###"))) (RegexConcat (RegexStar (RegexStar (Str2Reg "$$"))) (RegexConcat (RegexPlus (RegexStar (Str2Reg "%%%"))) (RegexConcat (RegexUnion (RegexPlus (Str2Reg "&")) (RegexPlus (Str2Reg "'"))) (RegexConcat (RegexPlus (RegexPlus (Str2Reg "(("))) (RegexConcat (RegexUnion (RegexPlus (Str2Reg ")")) (RegexPlus (Str2Reg "**"))) (RegexConcat (RegexStar (RegexPlus (Str2Reg "+"))) (RegexConcat (RegexPlus (RegexPlus (Str2Reg ",,"))) (RegexConcat (RegexPlus (RegexStar (Str2Reg "--"))) (RegexConcat (RegexUnion (RegexStar (Str2Reg "...")) (RegexStar (Str2Reg "/"))) (RegexConcat (RegexStar (RegexStar (Str2Reg ":"))) (RegexConcat (RegexStar (RegexUnion (Str2Reg ";;") (Str2Reg "<<<"))) (RegexConcat (RegexStar (RegexPlus (Str2Reg "=="))) (RegexConcat (RegexPlus (RegexPlus (Str2Reg ">>>"))) (RegexConcat (RegexUnion (RegexPlus (Str2Reg "?")) (RegexPlus (Str2Reg "@@@"))) (RegexConcat (RegexUnion (RegexStar (Str2Reg "[[[")) (RegexStar (Str2Reg "\\\\"))) (RegexConcat (RegexUnion (RegexStar (Str2Reg "]]]")) (RegexStar (Str2Reg "^"))) (RegexConcat (RegexUnion (RegexPlus (Str2Reg "___")) (RegexPlus (Str2Reg "`"))) (RegexConcat (RegexUnion (RegexStar (Str2Reg "{{{")) (RegexStar (Str2Reg "|||"))) (RegexConcat (RegexStar (RegexPlus (Str2Reg "}}}"))) (RegexConcat (RegexPlus (RegexPlus (Str2Reg "~~"))) (RegexConcat (RegexUnion (RegexStar (Str2Reg "00")) (RegexStar (Str2Reg "111"))) (RegexConcat (RegexUnion (RegexStar (Str2Reg "2")) (RegexStar (Str2Reg "3"))) (RegexConcat (RegexPlus (RegexStar (Str2Reg "44"))) (RegexConcat (RegexUnion (RegexStar (Str2Reg "555")) (RegexStar (Str2Reg "666"))) (RegexConcat (RegexPlus (RegexPlus (Str2Reg "777"))) (RegexConcat (RegexStar (RegexStar (Str2Reg "8"))) (RegexConcat (RegexUnion (RegexPlus (Str2Reg "99")) (RegexPlus (Str2Reg "a"))) (RegexConcat (RegexStar (RegexUnion (Str2Reg "b") (Str2Reg "ccc"))) (RegexConcat (RegexUnion (RegexPlus (Str2Reg "d")) (RegexPlus (Str2Reg "eee"))) (RegexConcat (RegexUnion (RegexPlus (Str2Reg "fff")) (RegexPlus (Str2Reg "gg"))) (RegexPlus (RegexStar (Str2Reg "hh")))))))))))))))))))))))))))))))))))))))))))))))))))))))))))))))))))))))))))))))))))))))))))))))))))))))))))))))))))))))))))))))))))
(check-sat)